(set-info :source |printed by MathSAT|)
(declare-fun param_q () Bool)
(declare-fun call_Sofar.flby () Bool)
(declare-fun call_Age3.age_of_p () Int)
(declare-fun call_Age2.flby () Int)
(declare-fun call_Age3.flby () Int)
(declare-fun m () Int)
(declare-fun flby2 () Int)
(declare-fun param_ik () Int)
(declare-fun call_Age.age_of_p () Int)
(declare-fun flby () Int)
(declare-fun call_Sofar.Sofar () Bool)
(declare-fun call_Age2.age_of_p () Int)
(declare-fun call_Age.flby () Int)
(declare-fun flby3 () Bool)
(declare-fun _OK_ () Bool)
(declare-fun k () Int)
(declare-fun param_im () Int)
(declare-fun env () Bool)
(declare-fun param_r () Bool)
(define-fun .def_231 () Bool (= call_Age3.flby call_Age3.age_of_p))
(define-fun .def_228 () Bool (= call_Sofar.flby call_Sofar.Sofar))
(define-fun .def_226 () Bool (= call_Age2.age_of_p call_Age2.flby))
(define-fun .def_224 () Bool (= call_Age.age_of_p call_Age.flby))
(define-fun .def_222 () Bool (= env call_Sofar.Sofar))
(define-fun .def_219 () Bool (= m flby2))
(define-fun .def_217 () Bool (= k flby))
(define-fun .def_214 () Bool (not env))
(define-fun .def_215 () Bool (or flby3 .def_214))
(define-fun .def_216 () Bool (= _OK_ .def_215))
(define-fun .def_218 () Bool (and .def_216 .def_217))
(define-fun .def_220 () Bool (and .def_218 .def_219))
(define-fun .def_223 () Bool (and .def_220 .def_222))
(define-fun .def_225 () Bool (and .def_223 .def_224))
(define-fun .def_227 () Bool (and .def_225 .def_226))
(define-fun .def_229 () Bool (and .def_227 .def_228))
(define-fun .def_232 () Bool (and .def_229 .def_231))
(define-fun .def_210 () Bool (= call_Age3.flby 0))
(define-fun .def_206 () Bool (= call_Age2.flby 0))
(define-fun .def_203 () Bool (= call_Age.flby 0))
(define-fun .def_198 () Bool (= param_im flby2))
(define-fun .def_195 () Bool (= param_ik flby))
(define-fun .def_199 () Bool (and .def_195 .def_198))
(define-fun .def_201 () Bool (and .def_199 flby3))
(define-fun .def_204 () Bool (and .def_201 .def_203))
(define-fun .def_207 () Bool (and .def_204 .def_206))
(define-fun .def_187 () Bool (<= 1 m))
(define-fun .def_186 () Bool (<= 1 k))
(define-fun .def_188 () Bool (and .def_186 .def_187))
(define-fun .def_183 () Bool (<= k call_Age.age_of_p))
(define-fun .def_184 () Bool (not .def_183))
(define-fun .def_185 () Bool (or param_q .def_184))
(define-fun .def_189 () Bool (and .def_185 .def_188))
(define-fun .def_177 () Bool (<= m call_Age2.age_of_p))
(define-fun .def_178 () Bool (not .def_177))
(define-fun .def_179 () Bool (or param_r .def_178))
(define-fun .def_190 () Bool (and .def_179 .def_189))
(define-fun .def_192 () Bool (= .def_190 call_Sofar.flby))
(define-fun .def_208 () Bool (and .def_192 .def_207))
(define-fun .def_211 () Bool (and .def_208 .def_210))
(define-fun .def_233 () Bool (and .def_211 .def_232))
(assert .def_233)
